(set-info :source |
 Generated by Alive 0.1
 More info in N. P. Lopes, D. Menendez, S. Nagarakatte, J. Regehr.
 Provably Correct Peephole Optimizations with Alive. In PLDI'15.
|)

(set-info :status unknown)
(declare-fun C () (_ BitVec 40))
(declare-fun |ana_ComputeNumSignBits(%Op0)| () (_ BitVec 40))
(declare-fun %Op0 () (_ BitVec 40))
(assert
 (let (($x41880 (bvult C (_ bv40 40))))
 (let (($x17077 (not $x41880)))
 (let ((?x481154 ((_ extract 39 39) |ana_ComputeNumSignBits(%Op0)|)))
 (let ((?x481425 (ite (= ((_ extract 1 1) |ana_ComputeNumSignBits(%Op0)|) ?x481154) (ite (= ((_ extract 0 0) |ana_ComputeNumSignBits(%Op0)|) ?x481154) (_ bv40 40) (_ bv39 40)) (_ bv38 40))))
 (let ((?x481223 (ite (= ((_ extract 3 3) |ana_ComputeNumSignBits(%Op0)|) ?x481154) (ite (= ((_ extract 2 2) |ana_ComputeNumSignBits(%Op0)|) ?x481154) ?x481425 (_ bv37 40)) (_ bv36 40))))
 (let ((?x481298 (ite (= ((_ extract 5 5) |ana_ComputeNumSignBits(%Op0)|) ?x481154) (ite (= ((_ extract 4 4) |ana_ComputeNumSignBits(%Op0)|) ?x481154) ?x481223 (_ bv35 40)) (_ bv34 40))))
 (let ((?x481436 (ite (= ((_ extract 7 7) |ana_ComputeNumSignBits(%Op0)|) ?x481154) (ite (= ((_ extract 6 6) |ana_ComputeNumSignBits(%Op0)|) ?x481154) ?x481298 (_ bv33 40)) (_ bv32 40))))
 (let ((?x481217 (ite (= ((_ extract 9 9) |ana_ComputeNumSignBits(%Op0)|) ?x481154) (ite (= ((_ extract 8 8) |ana_ComputeNumSignBits(%Op0)|) ?x481154) ?x481436 (_ bv31 40)) (_ bv30 40))))
 (let ((?x481288 (ite (= ((_ extract 11 11) |ana_ComputeNumSignBits(%Op0)|) ?x481154) (ite (= ((_ extract 10 10) |ana_ComputeNumSignBits(%Op0)|) ?x481154) ?x481217 (_ bv29 40)) (_ bv28 40))))
 (let ((?x481451 (ite (= ((_ extract 13 13) |ana_ComputeNumSignBits(%Op0)|) ?x481154) (ite (= ((_ extract 12 12) |ana_ComputeNumSignBits(%Op0)|) ?x481154) ?x481288 (_ bv27 40)) (_ bv26 40))))
 (let ((?x481249 (ite (= ((_ extract 15 15) |ana_ComputeNumSignBits(%Op0)|) ?x481154) (ite (= ((_ extract 14 14) |ana_ComputeNumSignBits(%Op0)|) ?x481154) ?x481451 (_ bv25 40)) (_ bv24 40))))
 (let ((?x481327 (ite (= ((_ extract 17 17) |ana_ComputeNumSignBits(%Op0)|) ?x481154) (ite (= ((_ extract 16 16) |ana_ComputeNumSignBits(%Op0)|) ?x481154) ?x481249 (_ bv23 40)) (_ bv22 40))))
 (let ((?x481464 (ite (= ((_ extract 19 19) |ana_ComputeNumSignBits(%Op0)|) ?x481154) (ite (= ((_ extract 18 18) |ana_ComputeNumSignBits(%Op0)|) ?x481154) ?x481327 (_ bv21 40)) (_ bv20 40))))
 (let ((?x481349 (ite (= ((_ extract 21 21) |ana_ComputeNumSignBits(%Op0)|) ?x481154) (ite (= ((_ extract 20 20) |ana_ComputeNumSignBits(%Op0)|) ?x481154) ?x481464 (_ bv19 40)) (_ bv18 40))))
 (let ((?x481324 (ite (= ((_ extract 23 23) |ana_ComputeNumSignBits(%Op0)|) ?x481154) (ite (= ((_ extract 22 22) |ana_ComputeNumSignBits(%Op0)|) ?x481154) ?x481349 (_ bv17 40)) (_ bv16 40))))
 (let ((?x481406 (ite (= ((_ extract 25 25) |ana_ComputeNumSignBits(%Op0)|) ?x481154) (ite (= ((_ extract 24 24) |ana_ComputeNumSignBits(%Op0)|) ?x481154) ?x481324 (_ bv15 40)) (_ bv14 40))))
 (let ((?x481142 (ite (= ((_ extract 27 27) |ana_ComputeNumSignBits(%Op0)|) ?x481154) (ite (= ((_ extract 26 26) |ana_ComputeNumSignBits(%Op0)|) ?x481154) ?x481406 (_ bv13 40)) (_ bv12 40))))
 (let ((?x481122 (ite (= ((_ extract 29 29) |ana_ComputeNumSignBits(%Op0)|) ?x481154) (ite (= ((_ extract 28 28) |ana_ComputeNumSignBits(%Op0)|) ?x481154) ?x481142 (_ bv11 40)) (_ bv10 40))))
 (let ((?x481353 (ite (= ((_ extract 31 31) |ana_ComputeNumSignBits(%Op0)|) ?x481154) (ite (= ((_ extract 30 30) |ana_ComputeNumSignBits(%Op0)|) ?x481154) ?x481122 (_ bv9 40)) (_ bv8 40))))
 (let ((?x478980 (ite (= ((_ extract 33 33) |ana_ComputeNumSignBits(%Op0)|) ?x481154) (ite (= ((_ extract 32 32) |ana_ComputeNumSignBits(%Op0)|) ?x481154) ?x481353 (_ bv7 40)) (_ bv6 40))))
 (let ((?x480676 (ite (= ((_ extract 35 35) |ana_ComputeNumSignBits(%Op0)|) ?x481154) (ite (= ((_ extract 34 34) |ana_ComputeNumSignBits(%Op0)|) ?x481154) ?x478980 (_ bv5 40)) (_ bv4 40))))
 (let ((?x481466 (ite (= ((_ extract 37 37) |ana_ComputeNumSignBits(%Op0)|) ?x481154) (ite (= ((_ extract 36 36) |ana_ComputeNumSignBits(%Op0)|) ?x481154) ?x480676 (_ bv3 40)) (_ bv2 40))))
 (let (($x481667 (bvsgt (ite (= ((_ extract 38 38) |ana_ComputeNumSignBits(%Op0)|) ?x481154) ?x481466 (_ bv1 40)) C)))
 (let ((?x481323 (ite (= ((_ extract 1 1) %Op0) ((_ extract 39 39) %Op0)) (ite (= ((_ extract 0 0) %Op0) ((_ extract 39 39) %Op0)) (_ bv40 40) (_ bv39 40)) (_ bv38 40))))
 (let ((?x481679 (ite (= ((_ extract 3 3) %Op0) ((_ extract 39 39) %Op0)) (ite (= ((_ extract 2 2) %Op0) ((_ extract 39 39) %Op0)) ?x481323 (_ bv37 40)) (_ bv36 40))))
 (let ((?x481367 (ite (= ((_ extract 5 5) %Op0) ((_ extract 39 39) %Op0)) (ite (= ((_ extract 4 4) %Op0) ((_ extract 39 39) %Op0)) ?x481679 (_ bv35 40)) (_ bv34 40))))
 (let ((?x481337 (ite (= ((_ extract 7 7) %Op0) ((_ extract 39 39) %Op0)) (ite (= ((_ extract 6 6) %Op0) ((_ extract 39 39) %Op0)) ?x481367 (_ bv33 40)) (_ bv32 40))))
 (let ((?x481546 (ite (= ((_ extract 9 9) %Op0) ((_ extract 39 39) %Op0)) (ite (= ((_ extract 8 8) %Op0) ((_ extract 39 39) %Op0)) ?x481337 (_ bv31 40)) (_ bv30 40))))
 (let ((?x481414 (ite (= ((_ extract 11 11) %Op0) ((_ extract 39 39) %Op0)) (ite (= ((_ extract 10 10) %Op0) ((_ extract 39 39) %Op0)) ?x481546 (_ bv29 40)) (_ bv28 40))))
 (let ((?x481362 (ite (= ((_ extract 13 13) %Op0) ((_ extract 39 39) %Op0)) (ite (= ((_ extract 12 12) %Op0) ((_ extract 39 39) %Op0)) ?x481414 (_ bv27 40)) (_ bv26 40))))
 (let ((?x481582 (ite (= ((_ extract 15 15) %Op0) ((_ extract 39 39) %Op0)) (ite (= ((_ extract 14 14) %Op0) ((_ extract 39 39) %Op0)) ?x481362 (_ bv25 40)) (_ bv24 40))))
 (let ((?x481501 (ite (= ((_ extract 17 17) %Op0) ((_ extract 39 39) %Op0)) (ite (= ((_ extract 16 16) %Op0) ((_ extract 39 39) %Op0)) ?x481582 (_ bv23 40)) (_ bv22 40))))
 (let ((?x481696 (ite (= ((_ extract 19 19) %Op0) ((_ extract 39 39) %Op0)) (ite (= ((_ extract 18 18) %Op0) ((_ extract 39 39) %Op0)) ?x481501 (_ bv21 40)) (_ bv20 40))))
 (let ((?x481586 (ite (= ((_ extract 21 21) %Op0) ((_ extract 39 39) %Op0)) (ite (= ((_ extract 20 20) %Op0) ((_ extract 39 39) %Op0)) ?x481696 (_ bv19 40)) (_ bv18 40))))
 (let ((?x481437 (ite (= ((_ extract 23 23) %Op0) ((_ extract 39 39) %Op0)) (ite (= ((_ extract 22 22) %Op0) ((_ extract 39 39) %Op0)) ?x481586 (_ bv17 40)) (_ bv16 40))))
 (let ((?x481707 (ite (= ((_ extract 25 25) %Op0) ((_ extract 39 39) %Op0)) (ite (= ((_ extract 24 24) %Op0) ((_ extract 39 39) %Op0)) ?x481437 (_ bv15 40)) (_ bv14 40))))
 (let ((?x481729 (ite (= ((_ extract 27 27) %Op0) ((_ extract 39 39) %Op0)) (ite (= ((_ extract 26 26) %Op0) ((_ extract 39 39) %Op0)) ?x481707 (_ bv13 40)) (_ bv12 40))))
 (let ((?x481447 (ite (= ((_ extract 29 29) %Op0) ((_ extract 39 39) %Op0)) (ite (= ((_ extract 28 28) %Op0) ((_ extract 39 39) %Op0)) ?x481729 (_ bv11 40)) (_ bv10 40))))
 (let ((?x481743 (ite (= ((_ extract 31 31) %Op0) ((_ extract 39 39) %Op0)) (ite (= ((_ extract 30 30) %Op0) ((_ extract 39 39) %Op0)) ?x481447 (_ bv9 40)) (_ bv8 40))))
 (let ((?x481740 (ite (= ((_ extract 33 33) %Op0) ((_ extract 39 39) %Op0)) (ite (= ((_ extract 32 32) %Op0) ((_ extract 39 39) %Op0)) ?x481743 (_ bv7 40)) (_ bv6 40))))
 (let ((?x480634 (ite (= ((_ extract 35 35) %Op0) ((_ extract 39 39) %Op0)) (ite (= ((_ extract 34 34) %Op0) ((_ extract 39 39) %Op0)) ?x481740 (_ bv5 40)) (_ bv4 40))))
 (let ((?x481756 (ite (= ((_ extract 37 37) %Op0) ((_ extract 39 39) %Op0)) (ite (= ((_ extract 36 36) %Op0) ((_ extract 39 39) %Op0)) ?x480634 (_ bv3 40)) (_ bv2 40))))
 (let (($x481430 (bvule (ite (= ((_ extract 38 38) |ana_ComputeNumSignBits(%Op0)|) ?x481154) ?x481466 (_ bv1 40)) (ite (= ((_ extract 38 38) %Op0) ((_ extract 39 39) %Op0)) ?x481756 (_ bv1 40)))))
 (and $x41880 $x481430 $x481667 $x17077)))))))))))))))))))))))))))))))))))))))))))))
(check-sat)
